c Standarized MaxSat Instance
c{
c "sha1sum": "aa2ba7ab06fd47012191966f5b84db066503797f",
c "nvars": 42,
c "ncls": 240,
c "total_lits": 552,
c "nhards": 198,
c "nhard_nlits": 510,
c "nhard_len_stats":
c    { "min": 2,
c      "max": 7,
c      "ave": 2.5758,
c      "stddev": 1.2680 },
c "nsofts": 42,
c "nsoft_nlits": 42,
c "nsoft_len_stats":
c    { "min": 1,
c      "max": 1,
c      "ave": 1.0000,
c      "stddev": 0.0000 },
c "nsoft_wts": 1,
c "soft_wt_stats":
c    { "min": 1,
c      "max": 1,
c      "ave": 1.0000,
c      "stddev": 0.0000 }
c}
c------------------------------------------------------------
c Triangle-Driven Community Detection in Large Graphs
c jabbour@cril.fr, badran.raddaoui@gmail.com, sais@cril.fr
c
h -1 -4 0
h -1 -2 0
h 1 4 2 0
h -2 -4 0
h -2 -5 0
h -2 -1 0
h -2 -3 0
h 2 4 5 1 3 0
h -4 -2 0
h -4 -1 0
h -4 -5 0
h -4 -7 0
h 4 2 1 5 7 0
h -3 -5 0
h -3 -2 0
h -3 -6 0
h 3 5 2 6 0
h -5 -3 0
h -5 -4 0
h -5 -2 0
h -5 -6 0
h -5 -7 0
h -5 -8 0
h 5 3 4 2 6 7 8 0
h -6 -5 0
h -6 -3 0
h -6 -8 0
h 6 5 3 8 0
h -7 -5 0
h -7 -4 0
h -7 -8 0
h -7 -9 0
h 7 5 4 8 9 0
h -8 -6 0
h -8 -7 0
h -8 -5 0
h -8 -9 0
h 8 6 7 5 9 0
h -9 -8 0
h -9 -7 0
h 9 8 7 0
h -29 -31 0
h -29 -30 0
h 29 31 30 0
h -30 -31 0
h -30 -29 0
h -30 -32 0
h 30 31 29 32 0
h -31 -30 0
h -31 -29 0
h -31 -32 0
h 31 30 29 32 0
h -32 -31 0
h -32 -30 0
h 32 31 30 0
h -33 -16 0
h -33 -34 0
h -33 -15 0
h -33 -36 0
h -33 -35 0
h 33 16 34 15 36 35 0
h -15 -16 0
h -15 -14 0
h -15 -13 0
h -15 -33 0
h 15 16 14 13 33 0
h -16 -34 0
h -16 -15 0
h -16 -33 0
h -16 -26 0
h -16 -14 0
h -16 -12 0
h 16 34 15 33 26 14 12 0
h -34 -36 0
h -34 -16 0
h -34 -33 0
h -34 -26 0
h 34 36 16 33 26 0
h -35 -36 0
h -35 -33 0
h -35 -37 0
h 35 36 33 37 0
h -36 -34 0
h -36 -35 0
h -36 -33 0
h -36 -26 0
h -36 -37 0
h -36 -38 0
h 36 34 35 33 26 37 38 0
h -26 -36 0
h -26 -16 0
h -26 -34 0
h -26 -22 0
h -26 -12 0
h -26 -27 0
h 26 36 16 34 22 12 27 0
h -37 -36 0
h -37 -35 0
h -37 -38 0
h 37 36 35 38 0
h -38 -37 0
h -38 -36 0
h 38 37 36 0
h -10 -13 0
h -10 -11 0
h 10 13 11 0
h -11 -13 0
h -11 -14 0
h -11 -10 0
h -11 -12 0
h 11 13 14 10 12 0
h -13 -11 0
h -13 -10 0
h -13 -14 0
h -13 -15 0
h 13 11 10 14 15 0
h -12 -14 0
h -12 -11 0
h -12 -16 0
h -12 -26 0
h -12 -22 0
h -12 -17 0
h 12 14 11 16 26 22 17 0
h -14 -12 0
h -14 -13 0
h -14 -11 0
h -14 -16 0
h -14 -15 0
h 14 12 13 11 16 15 0
h -17 -22 0
h -17 -12 0
h -17 -23 0
h -17 -18 0
h 17 22 12 23 18 0
h -22 -26 0
h -22 -17 0
h -22 -12 0
h -22 -27 0
h -22 -23 0
h 22 26 17 12 27 23 0
h -39 -41 0
h -39 -40 0
h 39 41 40 0
h -40 -41 0
h -40 -39 0
h -40 -42 0
h 40 41 39 42 0
h -41 -40 0
h -41 -39 0
h -41 -42 0
h 41 40 39 42 0
h -42 -41 0
h -42 -40 0
h 42 41 40 0
h -27 -22 0
h -27 -26 0
h -27 -23 0
h -27 -28 0
h 27 22 26 23 28 0
h -23 -27 0
h -23 -17 0
h -23 -22 0
h -23 -28 0
h -23 -18 0
h -23 -24 0
h 23 27 17 22 28 18 24 0
h -28 -23 0
h -28 -27 0
h 28 23 27 0
h -18 -23 0
h -18 -17 0
h -18 -24 0
h -18 -19 0
h -18 -21 0
h 18 23 17 24 19 21 0
h -24 -18 0
h -24 -23 0
h -24 -21 0
h -24 -20 0
h -24 -25 0
h 24 18 23 21 20 25 0
h -21 -24 0
h -21 -19 0
h -21 -18 0
h -21 -20 0
h 21 24 19 18 20 0
h -19 -21 0
h -19 -18 0
h -19 -20 0
h 19 21 18 20 0
h -25 -20 0
h -25 -24 0
h 25 20 24 0
h -20 -25 0
h -20 -21 0
h -20 -24 0
h -20 -19 0
h 20 25 21 24 19 0
1 -1 0
1 -2 0
1 -4 0
1 -3 0
1 -5 0
1 -6 0
1 -7 0
1 -8 0
1 -9 0
1 -29 0
1 -30 0
1 -31 0
1 -32 0
1 -33 0
1 -15 0
1 -16 0
1 -34 0
1 -35 0
1 -36 0
1 -26 0
1 -37 0
1 -38 0
1 -10 0
1 -11 0
1 -13 0
1 -12 0
1 -14 0
1 -17 0
1 -22 0
1 -39 0
1 -40 0
1 -41 0
1 -42 0
1 -27 0
1 -23 0
1 -28 0
1 -18 0
1 -24 0
1 -21 0
1 -19 0
1 -25 0
1 -20 0
